HUN,8,6,437
2,24,0,4,4,25,5,27,3,3,1,25
0,20,2,1,4,3,1,9,5,15,3,5
1,25,0,21,2,5,5,24,4,13,3,7
0,9,2,29,4,2,5,20,3,28,1,23
2,6,4,10,5,5,0,10,3,23,1,8
5,14,1,24,4,29,0,19,3,13,2,18
0,6,5,28,4,19,3,10,1,27,2,14
4,23,3,25,0,14,2,6,5,1,1,6
